3 
4  46 
5  12 32 42 50 58 
6  06 13 20 27 34 42 52 
7  00 07 15 22 30 37 45 52 
8  00 07 15 22 30 37 45 52 
9  00 07 15 22 30 37 45 52 
10  00 07 15 22 30 37 45 52 
11  00 07 15 22 30 37 45 52 
12  00 07 15 22 30 37 45 52 
13  00 07 15 22 30 37 45 52 
14  00 07 15 22 30 37 45 52 
15  00 07 15 22 30 37 45 52 
16  00 07 15 22 30 37 45 52 
17  00 07 15 22 30 37 45 52 
18  00 07 15 22 30 37 45 52 
19  00 07 15 22 30 37 45 52 
20  00 09 24 39 54 
21  07 22 37 52 
22  07 22 37 52 
23  06 22 
0 
